164
100
67
29
61
18
16
100
24
62
19
2
34
29
7
71
3
9
11
6
7
89
54
5
37
2
25
70
1
9
70
20
20
30
38
64
33
99
8
36
23
12
48
1
72
97
46
3
86
56
21
10
74
94
99
34
47
2
12
4
55
45
22
1
29
17
31
16
3
100
2
61
49
49
2
66
1
2
20
79
80
5
33
29
2
1
9
38
6
71
65
84
7
43
39
100
21
5
73
91
14
100
50
17
98
53
49
18
10
24
21
62
7
16
11
28
66
33
80
12
27
41
72
9
97
24
27
8
13
19
89
15
93
10
22
14
2
43
59
60
44
18
1
20
30
35
37
28
98
38
57
36
38
62
29
20
30
11
13
12
86
95
29
19
2
21
